Problem:    
Rows:       195
Columns:    69 (54 integer, 54 binary)
Non-zeros:  604
Status:     INTEGER OPTIMAL
Objective:  value = 50.0969 (MINimum)

   No.   Row name        Activity     Lower bound   Upper bound
------ ------------    ------------- ------------- -------------
     1 r.5                   50.0969             0               
     2 r.6                   50.0969      -988.171               
     3 r.7                    1050.1             0               
     4 r.8                  -949.903      -976.037               
     5 r.9                    1050.1             0               
     6 r.10                 -971.006      -987.997               
     7 r.11                  50.0969             0               
     8 r.12                  40.1598      -971.727               
     9 r.13                   1050.1             0               
    10 r.14                  -959.84      -988.834               
    11 r.15                  50.0969             0               
    12 r.16                  40.1598      -977.715               
    13 r.17                  50.0969             0               
    14 r.18                 -985.295      -991.195               
    15 r.19                   1050.1             0               
    16 r.20                 -976.756      -982.656               
    17 r.21                   1050.1             0               
    18 r.22                 -983.009      -988.909               
    19 r.23                  50.0969             0               
    20 r.24                  40.1598      -979.765               
    21 r.25                   1050.1             0               
    22 r.26                   -994.1        -994.1               
    23 r.27                  50.0969             0               
    24 r.28                      5.9      -991.125               
    25 r.29                   1050.1             0               
    26 r.30                 -949.903      -990.063               
    27 r.31                  50.0969             0               
    28 r.32                  50.0969      -983.032               
    29 r.33                        1             1             = 
    30 r.34                        1             1             = 
    31 r.35                        1             1             = 
    32 r.36                        1             1             = 
    33 r.37                        1             1             = 
    34 r.38                        1             1             = 
    35 r.39                        1             1             = 
    36 r.40                     1001             2               
    37 r.41                    -1001         -1001               
    38 r.42                   1978.9      -987.997               
    39 r.43                     1001             2               
    40 r.44                    -1001         -1001               
    41 r.45                  1990.06      -971.727               
    42 r.46                     1001             2               
    43 r.47                    -1001         -1001               
    44 r.48                  1990.06      -988.834               
    45 r.49                     1001             2               
    46 r.50                    -1001         -1001               
    47 r.51                  1990.06      -977.715               
    48 r.52                     1000             2               
    49 r.53                    -1000         -1001               
    50 r.54                  964.608      -991.195               
    51 r.55                        2             2               
    52 r.56                       -2         -1001               
    53 r.57                 -26.8529      -982.656               
    54 r.58                     1001             2               
    55 r.59                    -1001         -1001               
    56 r.60                  1966.89      -988.909               
    57 r.61                     1001             2               
    58 r.62                    -1001         -1001               
    59 r.63                  1990.06      -979.765               
    60 r.64                  44.1969      -988.171               
    61 r.65                 -955.803      -976.037               
    62 r.66                  44.1969      -988.171               
    63 r.67                 -955.803      -976.037               
    64 r.68                     1001             2               
    65 r.69                    -1001         -1001               
    66 r.70                     2000      -990.063               
    67 r.71                     1001             2               
    68 r.72                    -1001         -1001               
    69 r.73                     2000      -983.032               
    70 r.74                     1001             2               
    71 r.75                    -1001         -1001               
    72 r.76                   2021.1        11.829               
    73 r.77                     1001             2               
    74 r.78                    -1001         -1001               
    75 r.79                  2009.94       23.9627               
    76 r.80                        2             2               
    77 r.81                       -2         -1001               
    78 r.82                 -988.834      -988.834               
    79 r.83                     1000             2               
    80 r.84                    -1000         -1001               
    81 r.85                     2000      -977.715               
    82 r.86                     1001             2               
    83 r.87                    -1001         -1001               
    84 r.88                  985.711      -991.195               
    85 r.89                     1001             2               
    86 r.90                    -1001         -1001               
    87 r.91                  1983.08      -982.656               
    88 r.92                        2             2               
    89 r.93                       -2         -1001               
    90 r.94                 -12.0027      -988.909               
    91 r.95                     1000             2               
    92 r.96                    -1000         -1001               
    93 r.97                     2000      -979.765               
    94 r.98                 -976.906      -987.997               
    95 r.99                  34.2598      -971.727               
    96 r.100                -976.906      -987.997               
    97 r.101                 34.2598      -971.727               
    98 r.102                -978.897      -990.063               
    99 r.103                 21.1028      -983.032               
   100 r.104                -990.063      -990.063               
   101 r.105                  9.9371      -983.032               
   102 r.106                    1001             2               
   103 r.107                   -1001         -1001               
   104 r.108                 2009.94        11.829               
   105 r.109                    1001             2               
   106 r.110                   -1001         -1001               
   107 r.111                 2009.94       23.9627               
   108 r.112                       2             2               
   109 r.113                      -2         -1001               
   110 r.114                 988.834       12.0027               
   111 r.115                    1000             2               
   112 r.116                   -1000         -1001               
   113 r.117                    2000       28.2729               
   114 r.118                 25.4544      -988.834               
   115 r.119                 1025.45      -977.715               
   116 r.120                -983.084      -988.834               
   117 r.121                 16.9158      -977.715               
   118 r.122                       2             2               
   119 r.123                      -2         -1001               
   120 r.124                -23.1684      -988.909               
   121 r.125                    1000             2               
   122 r.126                   -1000         -1001               
   123 r.127                    2000      -979.765               
   124 r.128                 -965.74      -988.834               
   125 r.129                 34.2598      -977.715               
   126 r.130                 -965.74      -988.834               
   127 r.131                 34.2598      -977.715               
   128 r.132                -990.063      -990.063               
   129 r.133                  9.9371      -983.032               
   130 r.134                -990.063      -990.063               
   131 r.135                  9.9371      -983.032               
   132 r.136                    1000             2               
   133 r.137                   -1000         -1001               
   134 r.138                 3035.39        11.829               
   135 r.139                       2             2               
   136 r.140                      -2         -1001               
   137 r.141                 26.8529       23.9627               
   138 r.142                    1001             2               
   139 r.143                   -1001         -1001               
   140 r.144                 3014.29       12.0027               
   141 r.145                    1001             2               
   142 r.146                   -1001         -1001               
   143 r.147                 2016.92       28.2729               
   144 r.148                    1001             2               
   145 r.149                   -1001         -1001               
   146 r.150                 3002.29      -988.909               
   147 r.151                    1001             2               
   148 r.152                   -1001         -1001               
   149 r.153                 2016.92      -979.765               
   150 r.154                -991.195      -991.195               
   151 r.155                -982.656      -982.656               
   152 r.156                -991.195      -991.195               
   153 r.157                -982.656      -982.656               
   154 r.158                 35.3915      -990.063               
   155 r.159                 1035.39      -983.032               
   156 r.160                -973.147      -990.063               
   157 r.161                 26.8529      -983.032               
   158 r.162                    1001             2               
   159 r.163                   -1001         -1001               
   160 r.164                 2033.11        11.829               
   161 r.165                    1001             2               
   162 r.166                   -1001         -1001               
   163 r.167                 2009.94       23.9627               
   164 r.168                       2             2               
   165 r.169                      -2         -1001               
   166 r.170                 12.0027       12.0027               
   167 r.171                    1000             2               
   168 r.172                   -1000         -1001               
   169 r.173                    2000       28.2729               
   170 r.174                       2             2               
   171 r.175                      -2         -1001               
   172 r.176                 23.1684       11.1657               
   173 r.177                    1000             2               
   174 r.178                   -1000         -1001               
   175 r.179                    2000       22.2853               
   176 r.180                    1001             2               
   177 r.181                   -1001         -1001               
   178 r.182                 997.714        8.8054               
   179 r.183                    1001             2               
   180 r.184                   -1001         -1001               
   181 r.185                 1983.08        17.344               
   182 r.186                -988.909      -988.909               
   183 r.187                 34.2598      -979.765               
   184 r.188                -988.909      -988.909               
   185 r.189                 34.2598      -979.765               
   186 r.190                -966.894      -990.063               
   187 r.191                 33.1055      -983.032               
   188 r.192                -990.063      -990.063               
   189 r.193                  9.9371      -983.032               
   190 r.194                    1001             2               
   191 r.195                   -1001         -1001               
   192 r.196                    2000        11.829               
   193 r.197                    1001             2               
   194 r.198                   -1001         -1001               
   195 r.199                    2000       23.9627               

   No. Column name       Activity     Lower bound   Upper bound
------ ------------    ------------- ------------- -------------
     1 tt                    50.0969             0               
     2 s_1_1        *              0             0             1 
     3 t_1_1                       0             0               
     4 s_2_1        *              1             0             1 
     5 t_2_1                       0             0               
     6 s_1_2        *              1             0             1 
     7 t_1_2                 21.1028             0               
     8 s_1_7        *              1             0             1 
     9 s_2_2        *              0             0             1 
    10 t_2_2                  9.9371             0               
    11 s_2_7        *              0             0             1 
    12 s_1_3        *              1             0             1 
    13 t_1_3                  9.9371             0               
    14 s_2_3        *              0             0             1 
    15 t_2_3                  9.9371             0               
    16 s_1_4        *              0             0             1 
    17 t_1_4                 1035.39             0               
    18 s_2_4        *              1             0             1 
    19 t_2_4                 26.8529             0               
    20 s_1_5        *              1             0             1 
    21 t_1_5                 33.1055             0               
    22 s_2_5        *              0             0             1 
    23 t_2_5                  9.9371             0               
    24 s_1_6        *              1             0             1 
    25 t_1_6                 44.1969             0               
    26 s_2_6        *              0             0             1 
    27 t_2_6                 44.1969             0               
    28 t_1_7                       0             0               
    29 t_2_7                       0             0               
    30 r_1_1_2      *              1             0             1 
    31 u_1_1_2      *              0             0             1 
    32 r_2_1_2      *              1             0             1 
    33 u_2_1_2      *              0             0             1 
    34 r_1_1_3      *              1             0             1 
    35 u_1_1_3      *              0             0             1 
    36 r_2_1_3      *              1             0             1 
    37 u_2_1_3      *              0             0             1 
    38 r_1_1_4      *              1             0             1 
    39 u_1_1_4      *              0             0             1 
    40 r_2_1_4      *              0             0             1 
    41 u_2_1_4      *              0             0             1 
    42 r_1_1_5      *              1             0             1 
    43 u_1_1_5      *              0             0             1 
    44 r_2_1_5      *              1             0             1 
    45 u_2_1_5      *              0             0             1 
    46 r_1_1_7      *              1             0             1 
    47 u_1_1_7      *              0             0             1 
    48 r_2_1_7      *              1             0             1 
    49 u_2_1_7      *              0             0             1 
    50 r_1_2_3      *              0             0             1 
    51 u_1_2_3      *              1             0             1 
    52 r_2_2_3      *              1             0             1 
    53 u_2_2_3      *              0             0             1 
    54 r_1_2_4      *              1             0             1 
    55 u_1_2_4      *              0             0             1 
    56 r_2_2_4      *              1             0             1 
    57 u_2_2_4      *              0             0             1 
    58 r_1_2_5      *              0             0             1 
    59 u_1_2_5      *              0             0             1 
    60 r_2_2_5      *              1             0             1 
    61 u_2_2_5      *              0             0             1 
    62 r_1_3_5      *              0             0             1 
    63 u_1_3_5      *              0             0             1 
    64 r_2_3_5      *              1             0             1 
    65 u_2_3_5      *              0             0             1 
    66 r_1_4_5      *              1             0             1 
    67 u_1_4_5      *              0             0             1 
    68 r_2_4_5      *              1             0             1 
    69 u_2_4_5      *              0             0             1 

Integer feasibility conditions:

KKT.PE: max.abs.err = 2.27e-13 on row 16
        max.rel.err = 1.11e-16 on row 16
        High quality

KKT.PB: max.abs.err = 1.14e-13 on row 150
        max.rel.err = 1.16e-16 on row 151
        High quality

End of output
